c leafs=64, vars=16, seed=1, tickle=1, pretickle_path=1
p cnf 797 2152                                                                
e 17 18 19 20 21 22 23 24 25 26 27 28 29 30 31 32 33 34 35 36 37 38 39 40 41 42 43 44 45 46 47 48 49 50 51 52 53 54 55 56 57 58 59 60 61 62 63 64 65 66 67 68 69 70 71 72 73 74 75 76 77 78 79 80  0
a 1 2 3 4 5 6 7 8 9 10 11 12 13 14 15 16  0
e 81 82 83 84 85 86 87 88 89 90 91 92 93 94 95 96 97 98 99 100 101 102 103 104 105 106 107 108 109 110 111 112 113 114 115 116 117 118 119 120 121 122 123 124 125 126 127 128 129 130 131 132 133 134 135 136 137 138 139 140 141 142 143 144 145 146 147 148 149 150 151 152 153 154 155 156 157 158 159 160 161 162 163 164 165 166 167 168 169 170 171 172 173 174 175 176 177 178 179 180 181 182 183 184 185 186 187 188 189 190 191 192 193 194 195 196 197 198 199 200 201 202 203 204 205 206 207 208 209 210 211 212 213 214 215 216 217 218 219 220 221 222 223 224 225 226 227 228 229 230 231 232 233 234 235 236 237 238 239 240 241 242 243 244 245 246 247 248 249 250 251 252 253 254 255 256 257 258 259 260 261 262 263 264 265 266 267 268 269 270 271 272 273 274 275 276 277 278 279 280 281 282 283 284 285 286 287 288 289 290 291 292 293 294 295 296 297 298 299 300 301 302 303 304 305 306 307 308 309 310 311 312 313 314 315 316 317 318 319 320 321 322 323 324 325 326 327 328 329 330 331 332 333 334 335 336 337 338 339 340 341 342 343 344 345 346 347 348 349 350 351 352 353 354 355 356 357 358 359 360 361 362 363 364 365 366 367 368 369 370 371 372 373 374 375 376 377 378 379 380 381 382 383 384 385 386 387 388 389 390 391 392 393 394 395 396 397 398 399 400 401 402 403 404 405 406 407 408 409 410 411 412 413 414 415 416 417 418 419 420 421 422 423 424 425 426 427 428 429 430 431 432 433 434 435 436 437 438 439 440 441 442 443 444 445 446 447 448 449 450 451 452 453 454 455 456 457 458 459 460 461 462 463 464 465 466 467 468 469 470 471 472 473 474 475 476 477 478 479 480 481 482 483 484 485 486 487 488 489 490 491 492 493 494 495 496 497 498 499 500 501 502 503 504 505 506 507 508 509 510 511 512 513 514 515 516 517 518 519 520 521 522 523 524 525 526 527 528 529 530 531 532 533 534 535 536 537 538 539 540 541 542 543 544 545 546 547 548 549 550 551 552 553 554 555 556 557 558 559 560 561 562 563 564 565 566 567 568 569 570 571 572 573 574 575 576 577 578 579 580 581 582 583 584 585 586 587 588 589 590 591 592 593 594 595 596 597 598 599 600 601 602 603 604 605 606 607 608 609 610 611 612 613 614 615 616 617 618 619 620 621 622 623 624 625 626 627 628 629 630 631 632 633 634 635 636 637 638 639 640 641 642 643 644 645 646 647 648 649 650 651 652 653 654 655 656 657 658 659 660 661 662 663 664 665 666 667 668 669 670 671 672 673 674 675 676 677 678 679 680 681 682 683 684 685 686 687 688 689 690 691 692 693 694 695 696 697 698 699 700 701 702 703 704 705 706 707 708 709 710 711 712 713 714 715 716 717 718 719 720 721 722 723 724 725 726 727 728 729 730 731 732 733 734 735 736 737 738 739 740 741 742 743 744 745 746 747 748 749 750 751 752 753 754 755 756 757 758 759 760 761 762 763 764 765 766 767 768 769 770 771 772 773 774 775 776 777 778 779 780 781 782 783 784 785 786 787 788 789 790 791 792 793 794 795 796 797  0
797  0
81 9 -3  0
-81 -9  0
-81 3  0
82 3 -9  0
-82 -3  0
-82 9  0
-83 -10 16  0
83 10  0
83 -16  0
-84 -16 10  0
84 16  0
84 -10  0
85 7 -1  0
-85 -7  0
-85 1  0
86 1 -7  0
-86 -1  0
-86 7  0
87 5 -2  0
-87 -5  0
-87 2  0
88 2 -5  0
-88 -2  0
-88 5  0
-89 2 5  0
89 -2  0
89 -5  0
-90 -5 -2  0
90 5  0
90 2  0
91 7 -4  0
-91 -7  0
-91 4  0
92 4 -7  0
-92 -4  0
-92 7  0
93 11 -16  0
-93 -11  0
-93 16  0
94 16 -11  0
-94 -16  0
-94 11  0
95 2 -6  0
-95 -2  0
-95 6  0
96 6 -2  0
-96 -6  0
-96 2  0
-97 -15 13  0
97 15  0
97 -13  0
-98 -13 15  0
98 13  0
98 -15  0
-99 -9 14  0
99 9  0
99 -14  0
-100 -14 9  0
100 14  0
100 -9  0
101 -1 -7  0
-101 1  0
-101 7  0
102 7 1  0
-102 -7  0
-102 -1  0
-103 -14 -9  0
103 14  0
103 9  0
-104 9 14  0
104 -9  0
104 -14  0
105 -11 -16  0
-105 11  0
-105 16  0
106 16 11  0
-106 -16  0
-106 -11  0
107 -2 -6  0
-107 2  0
-107 6  0
108 6 2  0
-108 -6  0
-108 -2  0
-109 13 15  0
109 -13  0
109 -15  0
-110 -15 -13  0
110 15  0
110 13  0
111 8 -16  0
-111 -8  0
-111 16  0
112 16 -8  0
-112 -16  0
-112 8  0
-113 -11 15  0
113 11  0
113 -15  0
-114 -15 11  0
114 15  0
114 -11  0
115 3 -5  0
-115 -3  0
-115 5  0
116 5 -3  0
-116 -5  0
-116 3  0
-117 -13 -1  0
117 13  0
117 1  0
-118 1 13  0
118 -1  0
118 -13  0
119 2 1  0
-119 -2  0
-119 -1  0
120 -1 -2  0
-120 1  0
-120 2  0
121 12 -16  0
-121 -12  0
-121 16  0
122 16 -12  0
-122 -16  0
-122 12  0
-123 -11 -5  0
123 11  0
123 5  0
-124 5 11  0
124 -5  0
124 -11  0
125 12 -15  0
-125 -12  0
-125 15  0
126 15 -12  0
-126 -15  0
-126 12  0
-127 -5 -3  0
127 5  0
127 3  0
-128 3 5  0
128 -3  0
128 -5  0
-129 -78 5  0
129 78  0
129 -5  0
-130 -2 78  0
130 2  0
130 -78  0
-131 -8 77  0
131 8  0
131 -77  0
-132 -77 6  0
132 77  0
132 -6  0
-133 11 79  0
133 -11  0
133 -79  0
-134 -79 -13  0
134 79  0
134 13  0
-135 4 80  0
135 -4  0
135 -80  0
-136 -80 -16  0
136 80  0
136 16  0
137 -15 -76  0
-137 15  0
-137 76  0
138 76 13  0
-138 -76  0
-138 -13  0
139 1 -75  0
-139 -1  0
-139 75  0
140 75 -9  0
-140 -75  0
-140 9  0
-141 -74 14  0
141 74  0
141 -14  0
-142 4 74  0
142 -4  0
142 -74  0
-143 -73 -8  0
143 73  0
143 8  0
-144 -7 73  0
144 7  0
144 -73  0
-145 -4 72  0
145 4  0
145 -72  0
-146 -72 -15  0
146 72  0
146 15  0
-147 -13 71  0
147 13  0
147 -71  0
-148 -71 8  0
148 71  0
148 -8  0
-149 -69 -10  0
149 69  0
149 10  0
-150 9 69  0
150 -9  0
150 -69  0
-151 -70 11  0
151 70  0
151 -11  0
-152 -14 70  0
152 14  0
152 -70  0
-153 1 66  0
153 -1  0
153 -66  0
-154 -66 12  0
154 66  0
154 -12  0
-155 -11 65  0
155 11  0
155 -65  0
-156 -65 7  0
156 65  0
156 -7  0
157 12 -67  0
-157 -12  0
-157 67  0
158 67 16  0
-158 -67  0
-158 -16  0
159 68 3  0
-159 -68  0
-159 -3  0
160 -8 -68  0
-160 8  0
-160 68  0
-161 -59 -2  0
161 59  0
161 2  0
-162 -4 59  0
162 4  0
162 -59  0
-163 -11 60  0
163 11  0
163 -60  0
-164 -60 -14  0
164 60  0
164 14  0
165 57 16  0
-165 -57  0
-165 -16  0
166 7 -57  0
-166 -7  0
-166 57  0
167 10 -58  0
-167 -10  0
-167 58  0
168 58 -8  0
-168 -58  0
-168 8  0
-169 9 64  0
169 -9  0
169 -64  0
-170 -64 1  0
170 64  0
170 -1  0
-171 1 63  0
171 -1  0
171 -63  0
-172 -63 -3  0
172 63  0
172 3  0
173 -14 -62  0
-173 14  0
-173 62  0
174 62 -2  0
-174 -62  0
-174 2  0
175 -8 -61  0
-175 8  0
-175 61  0
176 61 -5  0
-176 -61  0
-176 5  0
-177 -51 -10  0
177 51  0
177 10  0
-178 -3 51  0
178 3  0
178 -51  0
-179 -52 -13  0
179 52  0
179 13  0
-180 15 52  0
180 -15  0
180 -52  0
-181 -2 50  0
181 2  0
181 -50  0
-182 -50 7  0
182 50  0
182 -7  0
-183 -14 49  0
183 14  0
183 -49  0
-184 -49 -1  0
184 49  0
184 1  0
185 54 15  0
-185 -54  0
-185 -15  0
186 5 -54  0
-186 -5  0
-186 54  0
187 53 -13  0
-187 -53  0
-187 13  0
188 -2 -53  0
-188 2  0
-188 53  0
-189 3 55  0
189 -3  0
189 -55  0
-190 -55 6  0
190 55  0
190 -6  0
-191 10 56  0
191 -10  0
191 -56  0
-192 -56 9  0
192 56  0
192 -9  0
-193 -4 19  0
193 4  0
193 -19  0
-194 -19 15  0
194 19  0
194 -15  0
-195 -14 20  0
195 14  0
195 -20  0
-196 -20 -8  0
196 20  0
196 8  0
197 18 -3  0
-197 -18  0
-197 3  0
198 -13 -18  0
-198 13  0
-198 18  0
199 17 16  0
-199 -17  0
-199 -16  0
200 5 -17  0
-200 -5  0
-200 17  0
-201 -2 21  0
201 2  0
201 -21  0
-202 -21 -6  0
202 21  0
202 6  0
-203 -22 -9  0
203 22  0
203 9  0
-204 -10 22  0
204 10  0
204 -22  0
205 24 -1  0
-205 -24  0
-205 1  0
206 4 -24  0
-206 -4  0
-206 24  0
207 23 13  0
-207 -23  0
-207 -13  0
208 -3 -23  0
-208 3  0
-208 23  0
209 28 -12  0
-209 -28  0
-209 12  0
210 6 -28  0
-210 -6  0
-210 28  0
211 27 -16  0
-211 -27  0
-211 16  0
212 -2 -27  0
-212 2  0
-212 27  0
213 26 9  0
-213 -26  0
-213 -9  0
214 -7 -26  0
-214 7  0
-214 26  0
215 -12 -25  0
-215 12  0
-215 25  0
216 25 -3  0
-216 -25  0
-216 3  0
-217 -30 1  0
217 30  0
217 -1  0
-218 -5 30  0
218 5  0
218 -30  0
-219 14 29  0
219 -14  0
219 -29  0
-220 -29 -4  0
220 29  0
220 4  0
221 31 -15  0
-221 -31  0
-221 15  0
222 -6 -31  0
-222 6  0
-222 31  0
223 32 8  0
-223 -32  0
-223 -8  0
224 -11 -32  0
-224 11  0
-224 32  0
-225 -37 10  0
225 37  0
225 -10  0
-226 13 37  0
226 -13  0
226 -37  0
-227 -38 8  0
227 38  0
227 -8  0
-228 -3 38  0
228 3  0
228 -38  0
229 39 12  0
-229 -39  0
-229 -12  0
230 2 -39  0
-230 -2  0
-230 39  0
231 16 -40  0
-231 -16  0
-231 40  0
232 40 1  0
-232 -40  0
-232 -1  0
233 34 4  0
-233 -34  0
-233 -4  0
234 -6 -34  0
-234 6  0
-234 34  0
235 -10 -33  0
-235 10  0
-235 33  0
236 33 13  0
-236 -33  0
-236 -13  0
237 15 -35  0
-237 -15  0
-237 35  0
238 35 1  0
-238 -35  0
-238 -1  0
239 36 -14  0
-239 -36  0
-239 14  0
240 2 -36  0
-240 -2  0
-240 36  0
241 1 -46  0
-241 -1  0
-241 46  0
242 46 3  0
-242 -46  0
-242 -3  0
243 -7 -45  0
-243 7  0
-243 45  0
244 45 -8  0
-244 -45  0
-244 8  0
245 15 -48  0
-245 -15  0
-245 48  0
246 48 -9  0
-246 -48  0
-246 9  0
247 11 -47  0
-247 -11  0
-247 47  0
248 47 12  0
-248 -47  0
-248 -12  0
249 4 -44  0
-249 -4  0
-249 44  0
250 44 -13  0
-250 -44  0
-250 13  0
251 43 -7  0
-251 -43  0
-251 7  0
252 6 -43  0
-252 -6  0
-252 43  0
253 -5 -42  0
-253 5  0
-253 42  0
254 42 -13  0
-254 -42  0
-254 13  0
255 10 -41  0
-255 -10  0
-255 41  0
256 41 -11  0
-256 -41  0
-256 11  0
-257 11 15  0
257 -11  0
257 -15  0
-258 -15 -11  0
258 15  0
258 11  0
-259 81 82  0
259 -81  0
259 -82  0
260 -83 -84  0
-260 83  0
-260 84  0
-261 85 86  0
261 -85  0
261 -86  0
-262 87 88  0
262 -87  0
262 -88  0
263 -89 -90  0
-263 89  0
-263 90  0
-264 91 92  0
264 -91  0
264 -92  0
-265 93 94  0
265 -93  0
265 -94  0
-266 95 96  0
266 -95  0
266 -96  0
267 -97 -98  0
-267 97  0
-267 98  0
268 -99 -100  0
-268 99  0
-268 100  0
-269 101 102  0
269 -101  0
269 -102  0
270 -103 -104  0
-270 103  0
-270 104  0
-271 105 106  0
271 -105  0
271 -106  0
-272 107 108  0
272 -107  0
272 -108  0
273 -109 -110  0
-273 109  0
-273 110  0
-274 111 112  0
274 -111  0
274 -112  0
275 -113 -114  0
-275 113  0
-275 114  0
-276 115 116  0
276 -115  0
276 -116  0
277 -117 -118  0
-277 117  0
-277 118  0
-278 119 120  0
278 -119  0
278 -120  0
-279 121 122  0
279 -121  0
279 -122  0
280 -123 -124  0
-280 123  0
-280 124  0
-281 125 126  0
281 -125  0
281 -126  0
282 -127 -128  0
-282 127  0
-282 128  0
283 -129 -130  0
-283 129  0
-283 130  0
284 -131 -132  0
-284 131  0
-284 132  0
285 -133 -134  0
-285 133  0
-285 134  0
286 -135 -136  0
-286 135  0
-286 136  0
-287 137 138  0
287 -137  0
287 -138  0
-288 139 140  0
288 -139  0
288 -140  0
289 -141 -142  0
-289 141  0
-289 142  0
290 -143 -144  0
-290 143  0
-290 144  0
291 -145 -146  0
-291 145  0
-291 146  0
292 -147 -148  0
-292 147  0
-292 148  0
293 -149 -150  0
-293 149  0
-293 150  0
294 -151 -152  0
-294 151  0
-294 152  0
295 -153 -154  0
-295 153  0
-295 154  0
296 -155 -156  0
-296 155  0
-296 156  0
-297 157 158  0
297 -157  0
297 -158  0
-298 159 160  0
298 -159  0
298 -160  0
299 -161 -162  0
-299 161  0
-299 162  0
300 -163 -164  0
-300 163  0
-300 164  0
-301 165 166  0
301 -165  0
301 -166  0
-302 167 168  0
302 -167  0
302 -168  0
303 -169 -170  0
-303 169  0
-303 170  0
304 -171 -172  0
-304 171  0
-304 172  0
-305 173 174  0
305 -173  0
305 -174  0
-306 175 176  0
306 -175  0
306 -176  0
307 -177 -178  0
-307 177  0
-307 178  0
308 -179 -180  0
-308 179  0
-308 180  0
309 -181 -182  0
-309 181  0
-309 182  0
310 -183 -184  0
-310 183  0
-310 184  0
-311 185 186  0
311 -185  0
311 -186  0
-312 187 188  0
312 -187  0
312 -188  0
313 -189 -190  0
-313 189  0
-313 190  0
314 -191 -192  0
-314 191  0
-314 192  0
315 -193 -194  0
-315 193  0
-315 194  0
316 -195 -196  0
-316 195  0
-316 196  0
-317 197 198  0
317 -197  0
317 -198  0
-318 199 200  0
318 -199  0
318 -200  0
319 -201 -202  0
-319 201  0
-319 202  0
320 -203 -204  0
-320 203  0
-320 204  0
-321 205 206  0
321 -205  0
321 -206  0
-322 207 208  0
322 -207  0
322 -208  0
-323 209 210  0
323 -209  0
323 -210  0
-324 211 212  0
324 -211  0
324 -212  0
-325 213 214  0
325 -213  0
325 -214  0
-326 215 216  0
326 -215  0
326 -216  0
327 -217 -218  0
-327 217  0
-327 218  0
328 -219 -220  0
-328 219  0
-328 220  0
-329 221 222  0
329 -221  0
329 -222  0
-330 223 224  0
330 -223  0
330 -224  0
331 -225 -226  0
-331 225  0
-331 226  0
332 -227 -228  0
-332 227  0
-332 228  0
-333 229 230  0
333 -229  0
333 -230  0
-334 231 232  0
334 -231  0
334 -232  0
-335 233 234  0
335 -233  0
335 -234  0
-336 235 236  0
336 -235  0
336 -236  0
-337 237 238  0
337 -237  0
337 -238  0
-338 239 240  0
338 -239  0
338 -240  0
-339 241 242  0
339 -241  0
339 -242  0
-340 243 244  0
340 -243  0
340 -244  0
-341 245 246  0
341 -245  0
341 -246  0
-342 247 248  0
342 -247  0
342 -248  0
-343 249 250  0
343 -249  0
343 -250  0
-344 251 252  0
344 -251  0
344 -252  0
-345 253 254  0
345 -253  0
345 -254  0
-346 255 256  0
346 -255  0
346 -256  0
347 -257 -258  0
-347 257  0
-347 258  0
-348 -3 262  0
348 3  0
348 -262  0
-349 3 262  0
349 -3  0
349 -262  0
-350 -3 263  0
350 3  0
350 -263  0
-351 3 263  0
351 -3  0
351 -263  0
-352 -15 264  0
352 15  0
352 -264  0
-353 15 264  0
353 -15  0
353 -264  0
-354 265 266  0
354 -265  0
354 -266  0
355 -267 -268  0
-355 267  0
-355 268  0
-356 -13 270  0
356 13  0
356 -270  0
-357 13 270  0
357 -13  0
357 -270  0
358 -271 -272  0
-358 271  0
-358 272  0
359 -7 -274  0
-359 7  0
-359 274  0
360 7 -274  0
-360 -7  0
-360 274  0
361 -3 266  0
-361 3  0
-361 -266  0
362 3 266  0
-362 -3  0
-362 -266  0
-363 10 277  0
363 -10  0
363 -277  0
-364 -10 277  0
364 10  0
364 -277  0
-365 -13 278  0
365 13  0
365 -278  0
-366 13 278  0
366 -13  0
366 -278  0
367 -10 -279  0
-367 10  0
-367 279  0
368 10 -279  0
-368 -10  0
-368 279  0
-369 4 280  0
369 -4  0
369 -280  0
-370 -4 280  0
370 4  0
370 -280  0
-371 283 284  0
371 -283  0
371 -284  0
-372 -284 -283  0
372 284  0
372 283  0
-373 285 286  0
373 -285  0
373 -286  0
-374 -286 -285  0
374 286  0
374 285  0
-375 287 288  0
375 -287  0
375 -288  0
-376 -288 -287  0
376 288  0
376 287  0
-377 289 290  0
377 -289  0
377 -290  0
-378 -290 -289  0
378 290  0
378 289  0
-379 291 292  0
379 -291  0
379 -292  0
-380 -292 -291  0
380 292  0
380 291  0
-381 293 294  0
381 -293  0
381 -294  0
-382 -294 -293  0
382 294  0
382 293  0
-383 295 296  0
383 -295  0
383 -296  0
-384 -295 -296  0
384 295  0
384 296  0
-385 297 298  0
385 -297  0
385 -298  0
-386 -297 -298  0
386 297  0
386 298  0
-387 299 300  0
387 -299  0
387 -300  0
-388 -300 -299  0
388 300  0
388 299  0
-389 301 302  0
389 -301  0
389 -302  0
-390 -302 -301  0
390 302  0
390 301  0
-391 303 304  0
391 -303  0
391 -304  0
-392 -303 -304  0
392 303  0
392 304  0
-393 305 306  0
393 -305  0
393 -306  0
-394 -305 -306  0
394 305  0
394 306  0
-395 307 308  0
395 -307  0
395 -308  0
-396 -307 -308  0
396 307  0
396 308  0
-397 309 310  0
397 -309  0
397 -310  0
-398 -310 -309  0
398 310  0
398 309  0
-399 311 312  0
399 -311  0
399 -312  0
-400 -312 -311  0
400 312  0
400 311  0
-401 313 314  0
401 -313  0
401 -314  0
-402 -314 -313  0
402 314  0
402 313  0
-403 315 316  0
403 -315  0
403 -316  0
-404 -316 -315  0
404 316  0
404 315  0
-405 317 318  0
405 -317  0
405 -318  0
-406 -317 -318  0
406 317  0
406 318  0
-407 319 320  0
407 -319  0
407 -320  0
-408 -320 -319  0
408 320  0
408 319  0
-409 321 322  0
409 -321  0
409 -322  0
-410 -322 -321  0
410 322  0
410 321  0
-411 323 324  0
411 -323  0
411 -324  0
-412 -324 -323  0
412 324  0
412 323  0
-413 325 326  0
413 -325  0
413 -326  0
-414 -326 -325  0
414 326  0
414 325  0
-415 327 328  0
415 -327  0
415 -328  0
-416 -327 -328  0
416 327  0
416 328  0
-417 329 330  0
417 -329  0
417 -330  0
-418 -330 -329  0
418 330  0
418 329  0
-419 331 332  0
419 -331  0
419 -332  0
-420 -331 -332  0
420 331  0
420 332  0
-421 333 334  0
421 -333  0
421 -334  0
-422 -334 -333  0
422 334  0
422 333  0
-423 335 336  0
423 -335  0
423 -336  0
-424 -336 -335  0
424 336  0
424 335  0
-425 337 338  0
425 -337  0
425 -338  0
-426 -337 -338  0
426 337  0
426 338  0
-427 339 340  0
427 -339  0
427 -340  0
-428 -339 -340  0
428 339  0
428 340  0
-429 341 342  0
429 -341  0
429 -342  0
-430 -342 -341  0
430 342  0
430 341  0
-431 343 344  0
431 -343  0
431 -344  0
-432 -343 -344  0
432 343  0
432 344  0
-433 345 346  0
433 -345  0
433 -346  0
-434 -346 -345  0
434 346  0
434 345  0
-435 273 270  0
435 -273  0
435 -270  0
436 13 -268  0
-436 -13  0
-436 268  0
437 -13 -268  0
-437 13  0
-437 268  0
438 9 -348  0
-438 -9  0
-438 348  0
439 -9 -349  0
-439 9  0
-439 349  0
-440 9 350  0
440 -9  0
440 -350  0
-441 -9 351  0
441 9  0
441 -351  0
442 -1 -352  0
-442 1  0
-442 352  0
443 1 -353  0
-443 -1  0
-443 353  0
-444 355 269  0
444 -355  0
444 -269  0
-445 -8 355  0
445 8  0
445 -355  0
-446 -15 356  0
446 15  0
446 -356  0
-447 15 357  0
447 -15  0
447 -357  0
-448 8 355  0
448 -8  0
448 -355  0
449 -1 -359  0
-449 1  0
-449 359  0
450 1 -360  0
-450 -1  0
-450 360  0
-451 -9 361  0
451 9  0
451 -361  0
-452 9 362  0
452 -9  0
452 -362  0
-453 -6 363  0
453 6  0
453 -363  0
-454 6 364  0
454 -6  0
454 -364  0
455 -6 -365  0
-455 6  0
-455 365  0
456 6 -366  0
-456 -6  0
-456 366  0
457 -3 -367  0
-457 3  0
-457 367  0
458 3 -368  0
-458 -3  0
-458 368  0
-459 -7 369  0
459 7  0
459 -369  0
-460 7 370  0
460 -7  0
460 -370  0
461 -371 -372  0
-461 371  0
-461 372  0
462 -373 -374  0
-462 373  0
-462 374  0
463 -375 -376  0
-463 375  0
-463 376  0
464 -377 -378  0
-464 377  0
-464 378  0
465 -379 -380  0
-465 379  0
-465 380  0
466 -381 -382  0
-466 381  0
-466 382  0
467 -383 -384  0
-467 383  0
-467 384  0
468 -385 -386  0
-468 385  0
-468 386  0
469 -387 -388  0
-469 387  0
-469 388  0
470 -389 -390  0
-470 389  0
-470 390  0
471 -391 -392  0
-471 391  0
-471 392  0
472 -393 -394  0
-472 393  0
-472 394  0
473 -395 -396  0
-473 395  0
-473 396  0
474 -397 -398  0
-474 397  0
-474 398  0
475 -399 -400  0
-475 399  0
-475 400  0
476 -401 -402  0
-476 401  0
-476 402  0
477 -403 -404  0
-477 403  0
-477 404  0
478 -405 -406  0
-478 405  0
-478 406  0
479 -407 -408  0
-479 407  0
-479 408  0
480 -409 -410  0
-480 409  0
-480 410  0
481 -411 -412  0
-481 411  0
-481 412  0
482 -413 -414  0
-482 413  0
-482 414  0
483 -415 -416  0
-483 415  0
-483 416  0
484 -417 -418  0
-484 417  0
-484 418  0
485 -419 -420  0
-485 419  0
-485 420  0
486 -421 -422  0
-486 421  0
-486 422  0
487 -423 -424  0
-487 423  0
-487 424  0
488 -425 -426  0
-488 425  0
-488 426  0
489 -427 -428  0
-489 427  0
-489 428  0
490 -429 -430  0
-490 429  0
-490 430  0
491 -431 -432  0
-491 431  0
-491 432  0
492 -433 -434  0
-492 433  0
-492 434  0
-493 435 269  0
493 -435  0
493 -269  0
-494 15 436  0
494 -15  0
494 -436  0
-495 -15 437  0
495 15  0
495 -437  0
-496 8 435  0
496 -8  0
496 -435  0
-497 -8 435  0
497 8  0
497 -435  0
-498 438 439  0
498 -438  0
498 -439  0
499 -440 -441  0
-499 440  0
-499 441  0
-500 442 443  0
500 -442  0
500 -443  0
501 -446 -447  0
-501 446  0
-501 447  0
-502 449 450  0
502 -449  0
502 -450  0
503 -451 -452  0
-503 451  0
-503 452  0
504 -453 -454  0
-504 453  0
-504 454  0
-505 455 456  0
505 -455  0
505 -456  0
-506 457 458  0
506 -457  0
506 -458  0
507 -459 -460  0
-507 459  0
-507 460  0
508 -461 -462  0
-508 461  0
-508 462  0
509 -463 -464  0
-509 463  0
-509 464  0
-510 465 466  0
510 -465  0
510 -466  0
-511 467 468  0
511 -467  0
511 -468  0
-512 469 470  0
512 -469  0
512 -470  0
-513 471 472  0
513 -471  0
513 -472  0
514 -473 -474  0
-514 473  0
-514 474  0
515 -475 -476  0
-515 475  0
-515 476  0
516 -477 -478  0
-516 477  0
-516 478  0
517 -479 -480  0
-517 479  0
-517 480  0
518 -481 -482  0
-518 481  0
-518 482  0
519 -483 -484  0
-519 483  0
-519 484  0
520 -485 -486  0
-520 485  0
-520 486  0
521 -487 -488  0
-521 487  0
-521 488  0
-522 489 490  0
522 -489  0
522 -490  0
-523 491 492  0
523 -491  0
523 -492  0
524 -494 -495  0
-524 494  0
-524 495  0
-525 -13 498  0
525 13  0
525 -498  0
-526 13 -498  0
526 -13  0
526 498  0
-527 499 -261  0
527 -499  0
527 261  0
-528 500 354  0
528 -500  0
528 -354  0
-529 -354 -500  0
529 354  0
529 500  0
-530 8 501  0
530 -8  0
530 -501  0
-531 -8 501  0
531 8  0
531 -501  0
-532 358 500  0
532 -358  0
532 -500  0
-533 -500 -358  0
533 500  0
533 358  0
534 -505 -506  0
-534 505  0
-534 506  0
535 505 506  0
-535 -505  0
-535 -506  0
-536 508 509  0
536 -508  0
536 -509  0
-537 -509 -508  0
537 509  0
537 508  0
-538 510 511  0
538 -510  0
538 -511  0
-539 -511 -510  0
539 511  0
539 510  0
-540 512 513  0
540 -512  0
540 -513  0
-541 -512 -513  0
541 512  0
541 513  0
-542 514 515  0
542 -514  0
542 -515  0
-543 -514 -515  0
543 514  0
543 515  0
544 -516 -517  0
-544 516  0
-544 517  0
545 516 517  0
-545 -516  0
-545 -517  0
546 -518 -519  0
-546 518  0
-546 519  0
547 519 518  0
-547 -519  0
-547 -518  0
548 -520 -521  0
-548 520  0
-548 521  0
549 521 520  0
-549 -521  0
-549 -520  0
550 -522 -523  0
-550 522  0
-550 523  0
551 522 523  0
-551 -522  0
-551 -523  0
-552 -8 524  0
552 8  0
552 -524  0
-553 8 524  0
553 -8  0
553 -524  0
554 -525 -526  0
-554 525  0
-554 526  0
555 -528 -529  0
-555 528  0
-555 529  0
556 -445 -530  0
-556 445  0
-556 530  0
557 -448 -531  0
-557 448  0
-557 531  0
558 -532 -533  0
-558 532  0
-558 533  0
-559 534 535  0
559 -534  0
559 -535  0
560 -536 -537  0
-560 536  0
-560 537  0
561 -538 -539  0
-561 538  0
-561 539  0
562 -540 -541  0
-562 540  0
-562 541  0
563 -542 -543  0
-563 542  0
-563 543  0
-564 544 545  0
564 -544  0
564 -545  0
-565 546 547  0
565 -546  0
565 -547  0
-566 548 549  0
566 -548  0
566 -549  0
-567 550 551  0
567 -550  0
567 -551  0
568 -552 -496  0
-568 552  0
-568 496  0
569 -497 -553  0
-569 497  0
-569 553  0
-570 -10 554  0
570 10  0
570 -554  0
-571 10 -554  0
571 -10  0
571 554  0
-572 -16 556  0
572 16  0
572 -556  0
-573 16 557  0
573 -16  0
573 -557  0
-574 9 558  0
574 -9  0
574 -558  0
-575 -9 558  0
575 9  0
575 -558  0
-576 267 558  0
576 -267  0
576 -558  0
577 3 -559  0
-577 -3  0
-577 559  0
578 -3 -559  0
-578 3  0
-578 559  0
579 -559 -281  0
-579 559  0
-579 281  0
580 -560 -561  0
-580 560  0
-580 561  0
-581 562 563  0
581 -562  0
581 -563  0
582 -564 -565  0
-582 564  0
-582 565  0
-583 566 567  0
583 -566  0
583 -567  0
-584 16 568  0
584 -16  0
584 -568  0
-585 -16 569  0
585 16  0
585 -569  0
-586 555 267  0
586 -555  0
586 -267  0
587 -9 -555  0
-587 9  0
-587 555  0
588 9 -555  0
-588 -9  0
-588 555  0
589 -570 -571  0
-589 570  0
-589 571  0
590 -572 -573  0
-590 572  0
-590 573  0
-591 14 574  0
591 -14  0
591 -574  0
-592 -14 575  0
592 14  0
592 -575  0
-593 -14 574  0
593 14  0
593 -574  0
-594 14 575  0
594 -14  0
594 -575  0
595 -8 -577  0
-595 8  0
-595 577  0
596 8 -578  0
-596 -8  0
-596 578  0
597 -8 -578  0
-597 8  0
-597 578  0
598 8 -577  0
-598 -8  0
-598 577  0
-599 580 581  0
599 -580  0
599 -581  0
-600 -580 -581  0
600 580  0
600 581  0
-601 582 583  0
601 -582  0
601 -583  0
-602 -582 -583  0
602 582  0
602 583  0
603 -584 -585  0
-603 584  0
-603 585  0
-604 14 587  0
604 -14  0
604 -587  0
-605 -14 588  0
605 14  0
605 -588  0
-606 14 588  0
606 -14  0
606 -588  0
-607 -14 587  0
607 14  0
607 -587  0
-608 261 589  0
608 -261  0
608 -589  0
-609 590 -269  0
609 -590  0
609 269  0
610 -591 -592  0
-610 591  0
-610 592  0
611 -593 -594  0
-611 593  0
-611 594  0
-612 595 596  0
612 -595  0
612 -596  0
-613 597 598  0
613 -597  0
613 -598  0
614 -599 -600  0
-614 599  0
-614 600  0
615 -601 -602  0
-615 601  0
-615 602  0
-616 603 -269  0
616 -603  0
616 269  0
617 -604 -605  0
-617 604  0
-617 605  0
618 -606 -607  0
-618 606  0
-618 607  0
619 -608 -527  0
-619 608  0
-619 527  0
620 -444 -609  0
-620 444  0
-620 609  0
-621 610 273  0
621 -610  0
621 -273  0
-622 611 -267  0
622 -611  0
622 267  0
623 -12 -612  0
-623 12  0
-623 612  0
624 12 -612  0
-624 -12  0
-624 612  0
625 -613 281  0
-625 613  0
-625 -281  0
626 -614 -615  0
-626 614  0
-626 615  0
627 -493 -616  0
-627 493  0
-627 616  0
-628 -267 617  0
628 267  0
628 -617  0
629 -267 -618  0
-629 267  0
-629 618  0
-630 260 619  0
630 -260  0
630 -619  0
631 11 -619  0
-631 -11  0
-631 619  0
632 -11 -619  0
-632 11  0
-632 619  0
633 -555 -620  0
-633 555  0
-633 620  0
-634 621 502  0
634 -621  0
634 -502  0
635 -576 -622  0
-635 576  0
-635 622  0
636 -15 -623  0
-636 15  0
-636 623  0
637 15 -624  0
-637 -15  0
-637 624  0
-638 579 625  0
638 -579  0
638 -625  0
-639 558 627  0
639 -558  0
639 -627  0
640 -586 -628  0
-640 586  0
-640 628  0
-641 629 502  0
641 -629  0
641 -502  0
-642 -2 631  0
642 2  0
642 -631  0
-643 2 632  0
643 -2  0
643 -632  0
-644 -2 632  0
644 2  0
644 -632  0
-645 2 631  0
645 -2  0
645 -631  0
-646 635 -502  0
646 -635  0
646 502  0
-647 636 637  0
647 -636  0
647 -637  0
648 -638 507  0
-648 638  0
-648 -507  0
-649 640 -502  0
649 -640  0
649 502  0
650 -642 -643  0
-650 642  0
-650 643  0
651 -644 -645  0
-651 644  0
-651 645  0
652 -634 -646  0
-652 634  0
-652 646  0
653 -647 -507  0
-653 647  0
-653 507  0
654 -649 -641  0
-654 649  0
-654 641  0
-655 650 -260  0
655 -650  0
655 260  0
656 -16 -651  0
-656 16  0
-656 651  0
657 16 -651  0
-657 -16  0
-657 651  0
-658 653 648  0
658 -653  0
658 -648  0
659 -630 -655  0
-659 630  0
-659 655  0
-660 -10 656  0
660 10  0
660 -656  0
-661 10 657  0
661 -10  0
661 -657  0
-662 259 659  0
662 -259  0
662 -659  0
-663 14 659  0
663 -14  0
663 -659  0
664 -660 -661  0
-664 660  0
-664 661  0
-665 -14 659  0
665 14  0
665 -659  0
-666 -14 664  0
666 14  0
666 -664  0
-667 14 664  0
667 -14  0
667 -664  0
668 -663 -666  0
-668 663  0
-668 666  0
669 -665 -667  0
-669 665  0
-669 667  0
-670 -5 668  0
670 5  0
670 -668  0
-671 5 669  0
671 -5  0
671 -669  0
672 -670 -671  0
-672 670  0
-672 671  0
-673 672 -259  0
673 -672  0
673 259  0
674 -662 -673  0
-674 662  0
-674 673  0
-675 674 633  0
675 -674  0
675 -633  0
-676 -674 652  0
676 674  0
676 -652  0
-677 674 639  0
677 -674  0
677 -639  0
-678 -674 654  0
678 674  0
678 -654  0
679 -675 -676  0
-679 675  0
-679 676  0
680 -677 -678  0
-680 677  0
-680 678  0
-681 4 679  0
681 -4  0
681 -679  0
-682 14 679  0
682 -14  0
682 -679  0
-683 -14 679  0
683 14  0
683 -679  0
-684 679 -275  0
684 -679  0
684 275  0
-685 -4 679  0
685 4  0
685 -679  0
-686 679 -276  0
686 -679  0
686 276  0
687 -14 -680  0
-687 14  0
-687 680  0
688 14 -680  0
-688 -14  0
-688 680  0
-689 680 -275  0
689 -680  0
689 275  0
-690 4 680  0
690 -4  0
690 -680  0
-691 -4 680  0
691 4  0
691 -680  0
-692 680 -276  0
692 -680  0
692 276  0
-693 -1 682  0
693 1  0
693 -682  0
-694 1 683  0
694 -1  0
694 -683  0
-695 1 682  0
695 -1  0
695 -682  0
-696 -1 683  0
696 1  0
696 -683  0
-697 1 687  0
697 -1  0
697 -687  0
-698 -1 688  0
698 1  0
698 -688  0
-699 -1 687  0
699 1  0
699 -687  0
-700 1 688  0
700 -1  0
700 -688  0
701 -693 -694  0
-701 693  0
-701 694  0
702 -695 -696  0
-702 695  0
-702 696  0
703 -697 -698  0
-703 697  0
-703 698  0
704 -699 -700  0
-704 699  0
-704 700  0
-705 275 701  0
705 -275  0
705 -701  0
-706 275 702  0
706 -275  0
706 -702  0
707 -703 -347  0
-707 703  0
-707 347  0
-708 275 704  0
708 -275  0
708 -704  0
-709 705 503  0
709 -705  0
709 -503  0
710 -684 -706  0
-710 684  0
-710 706  0
-711 705 -503  0
711 -705  0
711 503  0
-712 -503 707  0
712 503  0
712 -707  0
713 -708 -689  0
-713 708  0
-713 689  0
-714 503 707  0
714 -503  0
714 -707  0
-715 -503 710  0
715 503  0
715 -710  0
-716 503 710  0
716 -503  0
716 -710  0
-717 713 503  0
717 -713  0
717 -503  0
-718 -503 713  0
718 503  0
718 -713  0
719 -709 -715  0
-719 709  0
-719 715  0
720 -711 -716  0
-720 711  0
-720 716  0
721 -712 -717  0
-721 712  0
-721 717  0
722 -714 -718  0
-722 714  0
-722 718  0
-723 -4 719  0
723 4  0
723 -719  0
-724 4 719  0
724 -4  0
724 -719  0
-725 719 -276  0
725 -719  0
725 276  0
-726 720 -276  0
726 -720  0
726 276  0
-727 4 720  0
727 -4  0
727 -720  0
-728 -4 720  0
728 4  0
728 -720  0
729 4 -721  0
-729 -4  0
-729 721  0
730 -4 -721  0
-730 4  0
-730 721  0
-731 721 -276  0
731 -721  0
731 276  0
-732 -4 722  0
732 4  0
732 -722  0
-733 4 722  0
733 -4  0
733 -722  0
-734 722 -276  0
734 -722  0
734 276  0
735 -681 -723  0
-735 681  0
-735 723  0
736 -685 -724  0
-736 685  0
-736 724  0
-737 14 727  0
737 -14  0
737 -727  0
-738 -14 728  0
738 14  0
738 -728  0
-739 14 728  0
739 -14  0
739 -728  0
-740 -14 727  0
740 14  0
740 -727  0
-741 -14 729  0
741 14  0
741 -729  0
-742 14 730  0
742 -14  0
742 -730  0
-743 -14 730  0
743 14  0
743 -730  0
-744 14 729  0
744 -14  0
744 -729  0
745 -732 -690  0
-745 732  0
-745 690  0
746 -733 -691  0
-746 733  0
-746 691  0
-747 14 735  0
747 -14  0
747 -735  0
-748 -14 736  0
748 14  0
748 -736  0
-749 14 736  0
749 -14  0
749 -736  0
-750 -14 735  0
750 14  0
750 -735  0
751 -737 -738  0
-751 737  0
-751 738  0
752 -739 -740  0
-752 739  0
-752 740  0
753 -741 -742  0
-753 741  0
-753 742  0
754 -743 -744  0
-754 743  0
-754 744  0
-755 14 745  0
755 -14  0
755 -745  0
-756 -14 746  0
756 14  0
756 -746  0
-757 -14 745  0
757 14  0
757 -745  0
-758 14 746  0
758 -14  0
758 -746  0
759 -747 -748  0
-759 747  0
-759 748  0
760 -749 -750  0
-760 749  0
-760 750  0
-761 276 751  0
761 -276  0
761 -751  0
-762 752 282  0
762 -752  0
762 -282  0
763 -753 276  0
-763 753  0
-763 -276  0
-764 754 276  0
764 -754  0
764 -276  0
765 -755 -756  0
-765 755  0
-765 756  0
766 -757 -758  0
-766 757  0
-766 758  0
-767 759 276  0
767 -759  0
767 -276  0
-768 760 276  0
768 -760  0
768 -276  0
769 -726 -761  0
-769 726  0
-769 761  0
-770 504 762  0
770 -504  0
770 -762  0
-771 763 504  0
771 -763  0
771 -504  0
772 -731 -764  0
-772 731  0
-772 764  0
-773 276 765  0
773 -276  0
773 -765  0
-774 276 766  0
774 -276  0
774 -766  0
775 -767 -686  0
-775 767  0
-775 686  0
776 -725 -768  0
-776 725  0
-776 768  0
-777 769 -504  0
777 -769  0
777 504  0
-778 772 -504  0
778 -772  0
778 504  0
779 -773 -692  0
-779 773  0
-779 692  0
780 -774 -734  0
-780 774  0
-780 734  0
-781 775 504  0
781 -775  0
781 -504  0
-782 776 -504  0
782 -776  0
782 504  0
783 -777 -770  0
-783 777  0
-783 770  0
784 -771 -778  0
-784 771  0
-784 778  0
-785 504 779  0
785 -504  0
785 -779  0
-786 780 -504  0
786 -780  0
786 504  0
787 -781 -782  0
-787 781  0
-787 782  0
-788 783 -658  0
788 -783  0
788 658  0
-789 784 -658  0
789 -784  0
789 658  0
790 -785 -786  0
-790 785  0
-790 786  0
-791 787 658  0
791 -787  0
791 -658  0
-792 790 658  0
792 -790  0
792 -658  0
793 -791 -788  0
-793 791  0
-793 788  0
794 -789 -792  0
-794 789  0
-794 792  0
-795 793 626  0
795 -793  0
795 -626  0
-796 794 -626  0
796 -794  0
796 626  0
797 -795 -796  0
-797 795  0
-797 796  0
